\ Model Sudoku Problem
\ LP format - for model browsing. Use MPS format to capture full model detail.
Minimize
 
Subject To
 R0: x_1_1 = 0
 R1: x_1_1 = 0
 R2: x_1_1 = 0
 R3: x_1_1 = 0
Bounds
Generals
 x_1_1
End
